unsat
(:binary-propagations  30
 :conflicts            1
 :final-checks         1
 :max-generation       1
 :max-memory           29.39
 :memory               22.53
 :mk-bool-var          4798
 :mk-clause            1802
 :mk-clause-binary     5209
 :num-allocs           125987476
 :num-checks           1
 :propagations         30
 :quant-instantiations 969
 :restarts             1
 :rlimit-count         611235
 :time                 0.14)
